c ren 1 -> 1
c ren 2 -> 2
c ren 4 -> 3
c ren 6 -> 4
c ren 7 -> 5
c ren 9 -> 6
c ren 10 -> 7
c ren 11 -> 8
c ren 14 -> 9
c ren 20 -> 10
c ren 21 -> 11
c ren 23 -> 12
c ren 29 -> 13
c ren 33 -> 14
c ren 34 -> 15
c ren 37 -> 16
c ren 38 -> 17
c ren 39 -> 18
c ren 42 -> 19
c ren 45 -> 20
c ren 49 -> 21
c ren 52 -> 22
c ren 56 -> 23
c ren 59 -> 24
c ren 61 -> 25
c ren 64 -> 26
c ren 66 -> 27
c ren 69 -> 28
c ren 70 -> 29
c ren 73 -> 30
c ren 74 -> 31
c ren 76 -> 32
c ren 79 -> 33
c ren 82 -> 34
c ren 83 -> 35
c ren 85 -> 36
c ren 87 -> 37
c ren 123 -> 38
c ren 129 -> 39
c ren 144 -> 40
c ren 167 -> 41
c ren 179 -> 42
p cnf 42 130
a 1 2 3 6 7 8 9 10 11 12 13 14 17 18 19 20 22 23 24 26 28 30 31 32 34 35 36 0
d 15 10 13 0
d 38 1 6 0
d 39 14 17 0
d 40 22 26 0
d 41 28 35 0
d 42 30 34 0
e 4 5 16 21 25 27 29 33 37 0
-2 -4 0
-3 -4 0
2 3 4 0
-1 -4 5 0
1 4 5 0
-1 4 -5 0
1 -4 -5 0
-4 -5 6 7 -10 11 12 -13 -14 -15 -16 0
-4 -7 8 9 11 12 16 19 20 -21 -25 -27 -29 -33 -37 38 0
-4 -5 6 -8 -10 11 12 -13 14 15 -16 0
4 -5 6 7 -10 11 12 13 -14 -15 -16 0
-4 -5 -6 -7 8 9 -10 11 12 -13 -14 -15 -16 0
-4 -5 6 -9 -10 11 12 -13 14 15 -16 0
-4 -5 -6 -7 8 9 10 -11 -13 -14 -15 -16 0
4 -5 -6 -7 8 9 -10 11 12 13 -14 -15 -16 0
-4 -5 6 7 10 -12 -13 -14 -15 -16 0
-4 -5 -6 -7 8 9 10 -11 -13 14 15 -16 0
4 -5 -6 -7 8 9 -10 11 12 13 14 15 -16 0
4 -5 -6 -7 8 9 10 -11 13 -14 -15 -16 0
4 -5 6 7 10 -12 13 -14 -15 -16 0
7 8 9 -11 -15 16 18 19 20 -21 23 24 -25 -27 -29 -33 -37 -42 0
2 3 7 8 9 11 12 16 18 19 20 -21 23 24 -25 -27 -29 31 32 -33 35 -36 -37 42 0
4 -5 -6 -7 8 9 10 -12 13 -14 -15 -16 0
-4 -5 -6 -7 8 9 10 -12 -13 -14 -15 -16 0
7 8 9 -12 -15 16 18 19 20 -21 23 24 -25 -27 -29 -33 -37 -42 0
-4 -5 -6 -7 8 9 10 -12 -13 14 15 -16 0
7 11 12 16 19 20 -21 -25 -27 -29 -33 -37 -38 0
-12 16 -21 -25 -27 -29 -33 -37 -39 0
7 8 9 -12 -15 16 18 19 20 -21 23 24 -25 -27 -29 31 -32 -33 -37 0
-4 -5 6 7 10 -11 -13 -14 -15 -16 0
-12 16 -21 -25 -27 -29 -33 -37 -40 0
-4 -5 6 7 10 -12 -13 14 15 -16 0
4 -5 6 7 10 -11 13 -14 -15 -16 0
5 16 0
-4 -5 6 7 10 -11 -13 14 15 -16 0
7 8 9 -11 -15 16 18 19 20 -21 23 24 -25 -27 -29 31 -32 -33 -37 0
4 -5 6 7 10 -11 13 14 15 -16 0
-7 8 9 -17 -18 19 20 21 0
-8 28 29 0
-8 16 -21 -25 -27 -29 -33 -37 -39 0
-8 26 27 0
16 -20 -21 -25 -27 -29 -33 -37 -40 0
17 18 21 0
16 -20 -21 -25 -27 -29 -33 -37 -39 0
17 -20 21 0
-3 7 8 9 -15 16 18 19 20 -21 23 24 -25 -27 -29 31 -32 -33 -37 0
-20 26 27 0
-18 22 25 0
2 3 7 8 9 11 12 16 18 19 20 -21 23 -24 -25 -27 -29 -33 -37 40 0
2 3 7 8 9 11 12 15 16 18 19 20 -21 23 24 -25 -27 -29 31 -32 -33 -37 0
22 -23 25 0
-7 16 -21 -25 -27 -29 -33 -37 -40 0
-2 16 -21 -25 -27 -29 -33 -37 -40 0
-7 22 25 0
22 24 25 0
16 -18 -21 -25 -27 -29 -33 -37 -40 0
16 -21 24 -25 -27 -29 -33 -37 -40 0
-2 7 8 9 -15 16 18 19 20 -21 23 24 -25 -27 -29 31 -32 -33 -37 0
-19 26 27 0
8 9 -15 19 20 -26 27 0
17 -19 21 0
7 8 9 -15 16 18 19 20 -21 23 24 -25 -27 -29 -33 -35 -37 -42 0
-8 16 -21 -25 -27 -29 -33 -37 -40 0
8 9 -28 29 0
4 -5 6 7 -10 11 12 13 14 15 -16 0
-30 31 32 33 0
-9 16 -21 -25 -27 -29 -33 -37 -40 0
16 -19 -21 -25 -27 -29 -33 -37 -39 0
30 -32 33 0
-2 7 8 9 -15 16 18 19 20 -21 23 24 -25 -27 -29 -33 -37 -42 0
-34 35 -36 37 0
34 36 37 0
34 -35 37 0
-9 26 27 0
-9 16 -21 -25 -27 -29 -33 -37 -39 0
4 -5 6 7 10 -12 13 14 15 -16 0
-9 17 21 0
-8 11 12 16 19 20 -21 -25 -27 -29 -33 -37 -38 0
-4 -5 6 -8 -10 11 12 -13 -14 -15 -16 0
4 -5 6 -9 -10 11 12 13 -14 -15 -16 0
-9 11 12 16 19 20 -21 -25 -27 -29 -33 -37 -38 0
-4 -5 6 7 -10 11 12 -13 14 15 -16 0
-4 -5 6 -9 -10 11 12 -13 -14 -15 -16 0
4 -5 6 -9 -10 11 12 13 14 15 -16 0
4 -5 6 -9 10 -11 13 -14 -15 -16 0
-9 28 29 0
2 3 7 8 9 11 12 15 16 18 19 20 -21 23 24 -25 -27 -29 31 -33 35 -36 -37 0
-4 -5 6 -9 10 -11 -13 14 15 -16 0
-4 -5 6 -9 10 -11 -13 -14 -15 -16 0
4 -5 6 -9 10 -11 13 14 15 -16 0
4 -5 6 -9 10 -12 13 -14 -15 -16 0
-4 -5 6 -9 10 -12 -13 14 15 -16 0
-4 -5 6 -9 10 -12 -13 -14 -15 -16 0
4 -5 6 -9 10 -12 13 14 15 -16 0
16 18 -21 -25 -27 -29 -33 -37 -39 0
-11 16 -21 -25 -27 -29 -33 -37 -39 0
4 -5 6 -8 -10 11 12 13 -14 -15 -16 0
4 -5 6 -8 -10 11 12 13 14 15 -16 0
16 -19 -21 -25 -27 -29 -33 -37 -40 0
-3 16 -21 -25 -27 -29 -33 -37 -40 0
7 18 -22 23 -24 25 0
-11 16 -21 -25 -27 -29 -33 -37 -40 0
-3 7 8 9 -15 16 18 19 20 -21 23 24 -25 -27 -29 -33 -37 -42 0
-4 -5 6 -8 10 -11 -13 -14 -15 -16 0
-4 7 -8 11 12 16 18 19 20 -21 23 24 -25 -27 -29 31 32 -33 -37 -41 0
7 8 9 -15 16 18 19 20 -21 23 24 -25 -27 -29 -32 -33 -37 -42 0
-7 16 -21 -25 -27 -29 -33 -37 -39 0
7 8 9 -15 16 18 19 20 -21 23 24 -25 -27 -29 -31 -33 -37 -42 0
-4 7 8 9 11 12 16 18 19 20 -21 23 24 -25 -27 -29 31 32 -33 -35 -37 41 0
-2 16 -21 -25 -27 -29 -33 -37 -39 0
-3 16 -21 -25 -27 -29 -33 -37 -39 0
7 17 21 0
4 11 12 16 19 20 -21 -25 -27 -29 -33 -37 -38 0
-4 -5 6 -8 10 -11 -13 14 15 -16 0
-8 17 21 0
4 -5 6 -8 10 -11 13 -14 -15 -16 0
-4 -5 6 -8 10 -12 -13 -14 -15 -16 0
4 -5 6 -8 10 -11 13 14 15 -16 0
4 -5 6 -8 10 -12 13 -14 -15 -16 0
-4 -5 6 -8 10 -12 -13 14 15 -16 0
4 -5 6 -8 10 -12 13 14 15 -16 0
4 -5 -6 -7 8 9 10 -11 13 14 15 -16 0
7 8 9 -15 16 18 19 20 -21 23 24 -25 -27 -29 -33 36 -37 -42 0
2 3 7 8 9 11 12 16 -18 19 20 -21 -25 -27 -29 -33 -37 39 0
-4 7 -9 11 12 16 18 19 20 -21 23 24 -25 -27 -29 31 32 -33 -37 -41 0
30 -31 33 0
4 -5 -6 -7 8 9 10 -12 13 14 15 -16 0
-4 -5 -6 -7 8 9 -10 11 12 -13 14 15 -16 0
16 -21 -23 -25 -27 -29 -33 -37 -40 0
15 26 27 0
